Instance: /home/alberto/work/doct-ufrgs-thesis/mankowska2014/instances-HHCRSP/InstanzVNS_HCSRP_300_8.txt
Time limit: 7200
Working directory: ./run.Y8OfIeLj


Generating model and initial solution...
#######################################
### Exact MIP solver for the HHCRSP ###
#######################################
-- Instance file: /home/alberto/work/doct-ufrgs-thesis/mankowska2014/instances-HHCRSP/InstanzVNS_HCSRP_300_8.txt
-- Max threads: 1
-- Time limit: 200 seconds
-- Use initial solution: No
Trivial flow violations prevented generating 883865 variables.
Additional cuts are disabled.
Model exported.
SKIP_OPT flag set. Exiting.


Invoking CPLEX...

Welcome to IBM(R) ILOG(R) CPLEX(R) Interactive Optimizer 20.1.0.0
  with Simplex, Mixed Integer & Barrier Optimizers
5725-A06 5725-A29 5724-Y48 5724-Y49 5724-Y54 5724-Y55 5655-Y21
Copyright IBM Corp. 1988, 2020.  All Rights Reserved.

Type 'help' for a list of available commands.
Type 'help' followed by a command name for more
information on commands.

CPLEX> New value for reduced memory emphasis: yes
CPLEX> New value for seed to initialize the random number generator: 1
CPLEX> New value for time limit in seconds: 7200
CPLEX> Problem './run.Y8OfIeLj/model.lp' read.
Read time = 16.05 sec. (440.77 ticks)
CPLEX> Version identifier: 20.1.0.0 | 2020-11-10 | 9bedb6d68
CPXPARAM_Emphasis_Memory                         1
CPXPARAM_RandomSeed                              1
CPXPARAM_TimeLimit                               7200
Tried aggregator 1 time.
MIP Presolve eliminated 36516 rows and 8186 columns.
MIP Presolve modified 6768 coefficients.
Reduced MIP has 1229685 rows, 1001137 columns, and 24678703 nonzeros.
Reduced MIP has 994556 binaries, 0 generals, 0 SOSs, and 0 indicators.
Presolve time = 20.29 sec. (8565.82 ticks)
Probing time = 0.96 sec. (401.66 ticks)
Tried aggregator 1 time.
Detecting symmetries...
Reduced MIP has 1229685 rows, 1001137 columns, and 24678703 nonzeros.
Reduced MIP has 994556 binaries, 0 generals, 0 SOSs, and 0 indicators.
Presolve time = 59.33 sec. (14207.72 ticks)
Probing time = 1.12 sec. (399.46 ticks)
Clique table members: 336651.
MIP emphasis: balance optimality and feasibility.
MIP search method: dynamic search.
Parallel mode: deterministic, using up to 8 threads.
Root relaxation solution time = 17.03 sec. (5231.32 ticks)

        Nodes                                         Cuts/
   Node  Left     Objective  IInf  Best Integer    Best Bound    ItCnt     Gap

      0     0      461.9033   840                    461.9033     8989         
